data;
param T_size := 6

param dist :=
	1 1 0
	1 2 1
	1 3 2
	1 4 3
	1 5 2
	1 6 1
	2 1 1
	2 2 0
	2 3 1
	2 4 2
	2 5 3
	2 6 2
	3 1 2
	3 2 1
	3 3 0
	3 4 1
	3 5 2
	3 6 3
	4 1 3
	4 2 2
	4 3 1
	4 4 0
	4 5 1
	4 6 2
	5 1 2
	5 2 3
	5 3 2
	5 4 1
	5 5 0
	5 6 1
	6 1 1
	6 2 2
	6 3 3
	6 4 2
	6 5 1
	6 6 0

end;